c 
c MolecularSimulation 1.0.1
c Simulation written: Tue May  1 09:59:46 2012
c Test: Distribution
c Input: ./data/example/example_N4_M3.cnf
c 
s SATISFIABLE
v 1 2 4 0
c algorithmType:  Distribution
c algorithmTime:  0
c solutionMemory: 25
c mixCount:       6
c extractCount:   0
c appendCount:    26
c splitCount:     6
c spliceCount:    2
c purifyCount:    2
c numVar:         4
c numClause:      3
c 
